n = 100;
capacity = 100;
size = [80, 80, 79, 78, 78, 78, 77, 77, 76, 76, 76, 76, 75, 75, 74, 74, 73, 72, 72, 72, 72, 71, 71, 69, 69, 69, 68, 67, 67, 66, 66, 66, 66, 66, 66, 65, 62, 62, 61, 61, 61, 60, 59, 58, 58, 58, 57, 56, 54, 52, 52, 51, 51, 50, 49, 46, 44, 44, 44, 43, 43, 42, 41, 40, 40, 40, 40, 40, 39, 39, 37, 37, 36, 34, 33, 33, 32, 31, 31, 31, 30, 30, 30, 30, 29, 29, 29, 28, 28, 27, 27, 26, 26, 24, 24, 23, 23, 22, 21, 20];
